50 8
799 366
812 447
959 760
786 290
829 97
153 552
794 127
158 213
530 474
288 361
342 626
275 435
692 362
425 601
531 574
583 455
406 426
125 250
683 542
755 236
892 699
581 496
359 450
358 323
186 400
869 769
767 544
821 725
529 419
499 465
725 512
734 503
334 265
977 712
203 381
315 497
610 353
277 637
786 439
972 807
113 710
418 564
259 72
769 450
44 737
835 660
131 582
613 319
762 231
639 393
